(set-logic QF_S)
(declare-fun V6 () String )
(declare-fun V14 () String )
(declare-fun V8 () String )
(declare-fun V5 () String )
(declare-fun V9 () String )
(declare-fun V10 () String )
(declare-fun V1 () String )
(declare-fun V13 () String )
(declare-fun V11 () String )
(declare-fun V7 () String )
(assert (= (str.++ V5 V6 ) (str.++ (str.++ V7 "+" ) V8 ) ) )
(assert (= (str.++ V5 V6 ) (str.++ (str.++ V13 "+" ) V14 ) ) )
(assert (= (str.++ V5 V6 ) (str.++ (str.++ V9 ".sock" ) V10 ) ) )
(assert (= (str.++ (str.++ V1 V5 ) V6 ) (str.++ "mongodb://" V11 ) ) )
( check-sat )
